NAME : gil262.1013.tour
COMMENT : Length = 1013
COMMENT : Found by LKH [Keld Helsgaun] Sat May 25 06:41:12 2013
TYPE : TOUR
DIMENSION : 53
TOUR_SECTION
229
71
68
99
244
188
258
160
208
251
152
192
119
94
91
187
45
143
14
98
255
252
222
243
181
132
29
134
159
201
78
226
175
66
256
225
235
101
9
89
248
150
206
228
173
54
198
112
213
79
211
90
205
-1
EOF
